p cnf 62 164
1 -37 0
1 -38 0
37 -37 0
38 -38 0
19 -39 0
19 -40 0
39 -39 0
40 -40 0
2 -37 0
2 -38 0
37 -37 0
38 -38 0
20 -39 0
20 -40 0
39 -39 0
40 -40 0
3 -37 0
3 -38 0
37 -37 0
38 -38 0
21 -39 0
21 -40 0
39 -39 0
40 -40 0
4 -37 0
4 -38 0
37 -37 0
38 -38 0
22 -39 0
22 -40 0
39 -39 0
40 -40 0
5 -37 0
5 -38 0
37 -37 0
38 -38 0
23 -39 0
23 -40 0
39 -39 0
40 -40 0
-6 -37 0
-6 -38 0
37 -37 0
38 -38 0
-24 -39 0
-24 -40 0
39 -39 0
40 -40 0
7 -37 0
7 -38 0
37 -37 0
38 -38 0
25 -39 0
25 -40 0
39 -39 0
40 -40 0
8 -37 0
8 -38 0
37 -37 0
38 -38 0
26 -39 0
26 -40 0
39 -39 0
40 -40 0
9 -37 0
9 -38 0
37 -37 0
38 -38 0
27 -39 0
27 -40 0
39 -39 0
40 -40 0
10 -37 0
10 -38 0
37 -37 0
38 -38 0
28 -39 0
28 -40 0
39 -39 0
40 -40 0
11 -41 -37 0
-11 41 -37 0
11 41 -38 0
-11 -41 -38 0
29 -41 -39 0
-29 41 -39 0
29 41 -40 0
-29 -41 -40 0
12 -37 0
12 -38 0
37 -37 0
38 -38 0
30 -39 0
30 -40 0
39 -39 0
40 -40 0
13 -37 0
13 -38 0
37 -37 0
38 -38 0
31 -39 0
31 -40 0
39 -39 0
40 -40 0
14 -37 0
14 -38 0
37 -37 0
38 -38 0
32 -39 0
32 -40 0
39 -39 0
40 -40 0
-15 -37 0
-15 -38 0
37 -37 0
38 -38 0
-33 -39 0
-33 -40 0
39 -39 0
40 -40 0
-16 -37 0
-16 -38 0
37 -37 0
38 -38 0
-34 -39 0
-34 -40 0
39 -39 0
40 -40 0
17 -37 0
17 -38 0
37 -37 0
38 -38 0
35 -39 0
35 -40 0
39 -39 0
40 -40 0
18 -37 0
18 -38 0
37 -37 0
38 -38 0
36 -39 0
36 -40 0
39 -39 0
40 -40 0
-59 37 0
59 -37 0
-60 38 0
59 -38 0
-59 -37 0
-60 -38 0
-61 37 59 0
61 -37 0
61 -59 0
-62 38 60 0
62 -38 0
62 -60 0
-61 -39 0
-62 -40 0
61 0
62 0
-37 40 0
-38 0
-39 0
-40 37 0
